Problem:    lab07
Rows:       4
Columns:    3
Non-zeros:  12
Status:     OPTIMAL
Objective:  z = 175 (MAXimum)

   No.   Row name   St   Activity     Lower bound   Upper bound    Marginal
------ ------------ -- ------------- ------------- ------------- -------------
     1 z            B            175
     2 disponibilidadLeche
                    NU            75                          75       2.33333
     3 disponibilidadNata
                    B             50                         100
     4 Demanda      B             25            20

   No. Column name  St   Activity     Lower bound   Upper bound    Marginal
------ ------------ -- ------------- ------------- ------------- -------------
     1 h1           NL             0             0                    -4.33333
     2 h2           B             25             0
     3 h3           NL             0             0                    -1.66667

Karush-Kuhn-Tucker optimality conditions:

KKT.PE: max.abs.err = 0.00e+00 on row 0
        max.rel.err = 0.00e+00 on row 0
        High quality

KKT.PB: max.abs.err = 0.00e+00 on row 0
        max.rel.err = 0.00e+00 on row 0
        High quality

KKT.DE: max.abs.err = 0.00e+00 on column 0
        max.rel.err = 0.00e+00 on column 0
        High quality

KKT.DB: max.abs.err = 0.00e+00 on row 0
        max.rel.err = 0.00e+00 on row 0
        High quality

End of output
